6207736
132,136,2,12,170,153,49,215,161,206,118,220,177,71,166,88,76,154,61,47,228,56,92,127,209,32,96,137,222,167,81,229,35,80,211,4,83,55,184,143,46,37,213,70,204,51,164,6,101,77,193,52,112,192,64,230,7,5,38,173,160,95,174,217,124,179,48,227,188,73,149,33,68,34,82,89,45,142,157,43,197,152,78,145,183,199,75,129,219,21,181,189,123,182,104,155,41,147,115,135,214,210,113,44,8,207,17,110,216,99,148,131,108,94,26,65,111,218,10,122,201,178,13,67,156,50,138,72,54,176,121,225,39,159,144,11,19,162,133,74,223,150,151,93,36,165,139,29,60,25,185,117,9,105,171,169,205,84,194,20,226,196,102,23,28,190,128,114,30,224,120,31,16,208,91,134,186,126,14,87,203,119,141,15,103,195,98,62,125,198,1,57,90,163,63,180,53,18,100,172,200,42,27,202,66,24,212,69,175,40,158,106,79,221,130,116,59,58,109,85,140,97,191,86,168,3,146,187,22,107